DATASET = "thpack4";
INSTANCE = "094";

WIDTH = 233;
HEIGHT = 220;
LENGTH = 587;

NO_OF_SHAPES = 10;
size = [|
  75,73,69 |
  66,56,40 |
  64,51,41 |
  90,52,28 |
  73,33,28 |
  91,76,60 |
  54,45,28 |
  107,81,56 |
  63,53,44 |
  88,75,50 |
|];

verticality = [|
  1,1,1 |
  1,1,1 |
  1,1,1 |
  0,1,1 |
  0,1,1 |
  1,1,1 |
  1,1,1 |
  1,1,1 |
  1,1,1 |
  1,1,1 |
|];

box_count = [
  12,
  17,
  18,
  17,
  20,
  13,
  11,
  14,
  12,
  7,
];
